
--- Job PSE_V1.gms Start 06/27/19 14:30:52 24.4.1 r50296 WEX-WEI x86 64bit/MS Windows
GAMS 24.4.1   Copyright (C) 1987-2014 GAMS Development. All rights reserved
Licensee: GAMS Development Corporation, Washington, DC   G871201/0000CA-ANY
          Free Demo,  202-342-0180,  sales@gams.com,  www.gams.com   DC0000
--- Starting compilation
--- PSE_V1.gms(59) 3 Mb
--- call GDXXRW PSE_data.xlsx trace = 3 @tasks.txt

GDXXRW           24.4.1 r50296 Released Dec 20, 2014 VS8 x86 32bit/MS Windows 
Excel version 15.0
Input file : Y:\github\PSE_on_Y\GAMS_files\PSE_data.xlsx
Output file: Y:\github\PSE_on_Y\GAMS_files\PSE_data.gdx
Type Symbol       Dim     Sheet                Data          RowHeader     ColHeader     
Loading sheet Par
Reading data from Excel: Width = 6  Height = 85
Par  p_min          1     Par                  C4:C4         --:--         C3:C3         
Par  p_max          1     Par                  C9:C9         --:--         C8:C8         
Par  PR             2     Par                  D14:E15       C14:C15       D13:E13       
Par  tao            2     Par                  D20:E21       C20:C21       D19:E19       
Par  f              1     Par                  C26:E26       --:--         C25:E25       
Par  phi            2     Par                  D31:G32       C31:C32       D30:G30       
Par  miu            3     Par                  E37:G40       C37:D40       E36:G36       
Par  n              2     Par                  D45:E46       C45:C46       D44:E44       
Par  D              3     Par                  E51:G54       C51:D54       E50:G50       
Par  SP             2     Par                  D59:E60       C59:C60       D58:E58       
Par  SO             1     Par                  C65:D65       --:--         C64:D64       
Par  PC             1     Par                  C70:D70       --:--         C69:D69       
Par  OC             1     Par                  C75:C75       --:--         C74:C74       
Par  OP             2     Par                  D80:E81       C80:C81       D79:E79       
Par  LT             1     Par                  C86:D86       --:--         C85:D85       
Total time = 11497 Ms
--- PSE_V1.gms(60) 3 Mb
--- GDXin=Y:\github\PSE_on_Y\GAMS_files\PSE_data.gdx
--- PSE_V1.gms(166) 3 Mb
--- Starting execution: elapsed 0:00:12.016
--- PSE_V1.gms(156) 4 Mb
--- Generating MIP model test
--- PSE_V1.gms(161) 4 Mb
---   70 rows  159 columns  333 non-zeroes
---   12 discrete-columns
--- Executing CPLEX: elapsed 0:00:12.405

IBM ILOG CPLEX   24.4.1 r50296 Released Dec 20, 2014 WEI x86 64bit/MS Windows 
Cplex 12.6.1.0

Reading data...
Starting Cplex...
Space for names approximately 0.01 Mb
Use option 'names no' to turn use of names off
Found incumbent of value -35190.000000 after 0.00 sec. (0.01 ticks)
Tried aggregator 2 times.
MIP Presolve eliminated 37 rows and 119 columns.
MIP Presolve modified 9 coefficients.
Aggregator did 4 substitutions.
Reduced MIP has 29 rows, 36 columns, and 87 nonzeros.
Reduced MIP has 8 binaries, 0 generals, 0 SOSs, and 0 indicators.
Presolve time = 0.00 sec. (0.14 ticks)
Probing time = 0.00 sec. (0.01 ticks)
Tried aggregator 1 time.
Reduced MIP has 29 rows, 36 columns, and 87 nonzeros.
Reduced MIP has 8 binaries, 0 generals, 0 SOSs, and 0 indicators.
Presolve time = 0.00 sec. (0.05 ticks)
Probing time = 0.00 sec. (0.01 ticks)
Clique table members: 2.
MIP emphasis: balance optimality and feasibility.
MIP search method: dynamic search.
Parallel mode: none, using 1 thread.
Tried aggregator 1 time.
LP Presolve eliminated 10 rows and 8 columns.
Aggregator did 8 substitutions.
Reduced LP has 11 rows, 20 columns, and 42 nonzeros.
Presolve time = 0.03 sec. (0.03 ticks)
Initializing dual steep norms . . .

Iteration log . . .
Iteration:     1   Scaled dual infeas =            10.499999
Iteration:     4   Dual objective     =         42302.000000
Initializing dual steep norms . . .
Root relaxation solution time = 0.03 sec. (0.06 ticks)

        Nodes                                         Cuts/
   Node  Left     Objective  IInf  Best Integer    Best Bound    ItCnt     Gap

*     0+    0                       -27190.0000                            --- 
Found incumbent of value -27190.000000 after 0.03 sec. (0.32 ticks)
      0     0    42262.0000     2   -27190.0000    42262.0000        5  255.43%
*     0+    0                        28950.0000    42262.0000            45.98%
Found incumbent of value 28950.000000 after 0.03 sec. (0.37 ticks)
*     0     0      integral     0    42110.0000       Cuts: 9       20    0.00%
Found incumbent of value 42110.000000 after 0.05 sec. (0.48 ticks)
      0     0        cutoff          42110.0000    42110.0000       20    0.00%
Elapsed time = 0.05 sec. (0.48 ticks, tree = 0.00 MB, solutions = 3)

Implied bound cuts applied:  1
Flow cuts applied:  2
Mixed integer rounding cuts applied:  1
Gomory fractional cuts applied:  1

Root node processing (before b&c):
  Real time             =    0.05 sec. (0.49 ticks)
Sequential b&c:
  Real time             =    0.00 sec. (0.00 ticks)
                          ------------
Total (root+branch&cut) =    0.05 sec. (0.49 ticks)
MIP status(101): integer optimal solution
Cplex Time: 0.05sec (det. 0.49 ticks)
Fixing integer variables, and solving final LP...
Tried aggregator 1 time.
LP Presolve eliminated 70 rows and 159 columns.
All rows and columns eliminated.
Presolve time = 0.00 sec. (0.05 ticks)
Fixed MIP status(1): optimal
Cplex Time: 0.00sec (det. 0.09 ticks)

Proven optimal solution.

MIP Solution:        42110.000000    (20 iterations, 0 nodes)
Final Solve:         42110.000000    (0 iterations)

Best possible:       42110.000000
Absolute gap:            0.000000
Relative gap:            0.000000

--- Restarting execution
--- PSE_V1.gms(161) 2 Mb
--- Reading solution for model test
--- Executing after solve: elapsed 0:00:13.599
--- PSE_V1.gms(165) 3 Mb
*** Status: Normal completion
--- Job PSE_V1.gms Stop 06/27/19 14:31:06 elapsed 0:00:13.734
